NAME: small10
TYPE: TSP
COMMENT: 10 random cities for testing
DIMENSION: 10
EDGE_WEIGHT_TYPE: EUC_2D
NODE_COORD_SECTION
1 100.0 200.0
2 300.0 100.0
3 500.0 300.0
4 200.0 400.0
5 400.0 500.0
6 600.0 200.0
7 100.0 500.0
8 300.0 600.0
9 500.0 100.0
10 700.0 400.0
